p edge 30 39
e 4 1
e 7 3
e 7 5
e 11 1
e 11 2
e 12 3
e 13 5
e 15 3
e 15 8
e 17 8
e 17 15
e 18 16
e 19 4
e 19 7
e 20 4
e 20 5
e 20 6
e 20 9
e 21 2
e 21 8
e 22 10
e 22 16
e 23 3
e 23 11
e 24 1
e 24 12
e 25 11
e 25 18
e 26 12
e 27 1
e 27 25
e 28 6
e 28 12
e 28 13
e 28 14
e 28 26
e 29 22
e 30 9
e 30 14
